objective value:                                   -3
t_n_14                                              1 	(obj:-1)
t_n_67                                              1 	(obj:-1)
t_n_1567                                            1 	(obj:-1)
